(set-logic HORN)
(declare-fun state (Int Int Int (Array Int Int) (Array Int Int) (Array Int Int) Int Int Int Int Int Int (Array Int Int) (Array Int Int) Int Int Int Int Int Int Int Int Int Int Int Int Int Int Bool Bool Bool) Bool)
(assert (forall ((|hhv_ULTIMATE.start_L-1_0_Int| Int) (|hbv_ULTIMATE.start_ULTIMATE.startENTRY_1_Int| Int) (|hhv_ULTIMATE.start_L-1_2_Int| Int) (|hbv_ULTIMATE.start_ULTIMATE.startENTRY_3_Array_Int_Int| (Array Int Int)) (|hhv_ULTIMATE.start_L-1_4_Array_Int_Int| (Array Int Int)) (|hhv_ULTIMATE.start_L-1_5_Array_Int_Array_Int_Int| (Array Int Int)) (|hbv_ULTIMATE.start_ULTIMATE.startENTRY_6_Int| Int) (|hhv_ULTIMATE.start_L-1_7_Int| Int) (|hbv_ULTIMATE.start_ULTIMATE.startENTRY_8_Int| Int) (|hhv_ULTIMATE.start_L-1_9_Int| Int) (|hbv_ULTIMATE.start_ULTIMATE.startENTRY_10_Int| Int) (|hhv_ULTIMATE.start_L-1_11_Int| Int) (|hbv_ULTIMATE.start_ULTIMATE.startENTRY_12_Array_Int_Int| (Array Int Int)) (|hhv_ULTIMATE.start_L-1_13_Array_Int_Int| (Array Int Int)) (|hbv_ULTIMATE.start_ULTIMATE.startENTRY_14_Int| Int) (|hhv_ULTIMATE.start_L-1_15_Int| Int) (|hbv_ULTIMATE.start_ULTIMATE.startENTRY_16_Int| Int) (|hhv_ULTIMATE.start_L-1_17_Int| Int) (|hhv_ULTIMATE.start_L-1_18_Int| Int) (|hhv_ULTIMATE.start_L-1_19_Int| Int) (|hhv_ULTIMATE.start_L-1_20_Int| Int) (|hhv_ULTIMATE.start_L-1_21_Int| Int) (|hhv_ULTIMATE.start_L-1_22_Int| Int) (|hhv_ULTIMATE.start_L-1_23_Int| Int) (|hhv_ULTIMATE.start_L-1_24_Int| Int) (|hhv_ULTIMATE.start_L-1_25_Int| Int) (|hhv_ULTIMATE.start_L-1_26_Int| Int) (|hhv_ULTIMATE.start_L-1_27_Int| Int) (|hhv_ULTIMATE.start_L-1_28_Bool| Bool) (|.loc.3| Bool) (|.loc.4| Bool) (|.x.100| Int) (|.x.102| Int) (|.x.104| (Array Int Int)) (|.x.105| (Array Int Int)) (|.x.107| Int) (|.x.109| Int) (|.x.111| Int) (|.x.113| (Array Int Int)) (|.x.117| Int) (|.x.115| Int) (|.loc.5| Bool) (|.loc.6| Bool) (|.x.122| Int) (|.x.124| Int) (|.x.119| Int) (|.x.125| Int) (|.x.126| Int) (|.x.118| Int) (|.x.121| Int) (|.x.127| Int) (|.x.110| Int) (|.x.101| Int) (|.x.106| Int) (|.x.114| Int) (|.x.120| Int) (|hhv_ULTIMATE.start_ULTIMATE.startEXIT_28_Bool| Bool) (|.x.112| (Array Int Int)) (|.x.116| Int) (|.x.103| (Array Int Int)) (|.x.108| Int) (|.x.123| Int)) (=> (and (and (not .loc.4) (not .loc.3)) (and (and (and (and (and (and (and (and (= hbv_ULTIMATE.start_ULTIMATE.startENTRY_12_Array_Int_Int hhv_ULTIMATE.start_L-1_13_Array_Int_Int) (= hbv_ULTIMATE.start_ULTIMATE.startENTRY_3_Array_Int_Int hhv_ULTIMATE.start_L-1_4_Array_Int_Int)) (= hbv_ULTIMATE.start_ULTIMATE.startENTRY_6_Int hhv_ULTIMATE.start_L-1_7_Int)) (= hbv_ULTIMATE.start_ULTIMATE.startENTRY_8_Int hhv_ULTIMATE.start_L-1_9_Int)) (= hbv_ULTIMATE.start_ULTIMATE.startENTRY_10_Int hhv_ULTIMATE.start_L-1_11_Int)) (not hhv_ULTIMATE.start_L-1_28_Bool)) (= hbv_ULTIMATE.start_ULTIMATE.startENTRY_1_Int hhv_ULTIMATE.start_L-1_2_Int)) (= hbv_ULTIMATE.start_ULTIMATE.startENTRY_14_Int hhv_ULTIMATE.start_L-1_15_Int)) (= hbv_ULTIMATE.start_ULTIMATE.startENTRY_16_Int hhv_ULTIMATE.start_L-1_17_Int))) (state |hhv_ULTIMATE.start_L-1_0_Int| |hbv_ULTIMATE.start_ULTIMATE.startENTRY_1_Int| |hhv_ULTIMATE.start_L-1_2_Int| |hbv_ULTIMATE.start_ULTIMATE.startENTRY_3_Array_Int_Int| |hhv_ULTIMATE.start_L-1_4_Array_Int_Int| |hhv_ULTIMATE.start_L-1_5_Array_Int_Array_Int_Int| |hbv_ULTIMATE.start_ULTIMATE.startENTRY_6_Int| |hhv_ULTIMATE.start_L-1_7_Int| |hbv_ULTIMATE.start_ULTIMATE.startENTRY_8_Int| |hhv_ULTIMATE.start_L-1_9_Int| |hbv_ULTIMATE.start_ULTIMATE.startENTRY_10_Int| |hhv_ULTIMATE.start_L-1_11_Int| |hbv_ULTIMATE.start_ULTIMATE.startENTRY_12_Array_Int_Int| |hhv_ULTIMATE.start_L-1_13_Array_Int_Int| |hbv_ULTIMATE.start_ULTIMATE.startENTRY_14_Int| |hhv_ULTIMATE.start_L-1_15_Int| |hbv_ULTIMATE.start_ULTIMATE.startENTRY_16_Int| |hhv_ULTIMATE.start_L-1_17_Int| |hhv_ULTIMATE.start_L-1_18_Int| |hhv_ULTIMATE.start_L-1_19_Int| |hhv_ULTIMATE.start_L-1_20_Int| |hhv_ULTIMATE.start_L-1_21_Int| |hhv_ULTIMATE.start_L-1_22_Int| |hhv_ULTIMATE.start_L-1_23_Int| |hhv_ULTIMATE.start_L-1_24_Int| |hhv_ULTIMATE.start_L-1_25_Int| |hhv_ULTIMATE.start_L-1_26_Int| |hhv_ULTIMATE.start_L-1_27_Int| |hhv_ULTIMATE.start_L-1_28_Bool| |.loc.3| |.loc.4|))))
(assert (forall ((|hhv_ULTIMATE.start_L-1_0_Int| Int) (|hbv_ULTIMATE.start_ULTIMATE.startENTRY_1_Int| Int) (|hhv_ULTIMATE.start_L-1_2_Int| Int) (|hbv_ULTIMATE.start_ULTIMATE.startENTRY_3_Array_Int_Int| (Array Int Int)) (|hhv_ULTIMATE.start_L-1_4_Array_Int_Int| (Array Int Int)) (|hhv_ULTIMATE.start_L-1_5_Array_Int_Array_Int_Int| (Array Int Int)) (|hbv_ULTIMATE.start_ULTIMATE.startENTRY_6_Int| Int) (|hhv_ULTIMATE.start_L-1_7_Int| Int) (|hbv_ULTIMATE.start_ULTIMATE.startENTRY_8_Int| Int) (|hhv_ULTIMATE.start_L-1_9_Int| Int) (|hbv_ULTIMATE.start_ULTIMATE.startENTRY_10_Int| Int) (|hhv_ULTIMATE.start_L-1_11_Int| Int) (|hbv_ULTIMATE.start_ULTIMATE.startENTRY_12_Array_Int_Int| (Array Int Int)) (|hhv_ULTIMATE.start_L-1_13_Array_Int_Int| (Array Int Int)) (|hbv_ULTIMATE.start_ULTIMATE.startENTRY_14_Int| Int) (|hhv_ULTIMATE.start_L-1_15_Int| Int) (|hbv_ULTIMATE.start_ULTIMATE.startENTRY_16_Int| Int) (|hhv_ULTIMATE.start_L-1_17_Int| Int) (|hhv_ULTIMATE.start_L-1_18_Int| Int) (|hhv_ULTIMATE.start_L-1_19_Int| Int) (|hhv_ULTIMATE.start_L-1_20_Int| Int) (|hhv_ULTIMATE.start_L-1_21_Int| Int) (|hhv_ULTIMATE.start_L-1_22_Int| Int) (|hhv_ULTIMATE.start_L-1_23_Int| Int) (|hhv_ULTIMATE.start_L-1_24_Int| Int) (|hhv_ULTIMATE.start_L-1_25_Int| Int) (|hhv_ULTIMATE.start_L-1_26_Int| Int) (|hhv_ULTIMATE.start_L-1_27_Int| Int) (|hhv_ULTIMATE.start_L-1_28_Bool| Bool) (|.loc.3| Bool) (|.loc.4| Bool) (|.x.100| Int) (|.x.102| Int) (|.x.104| (Array Int Int)) (|.x.105| (Array Int Int)) (|.x.107| Int) (|.x.109| Int) (|.x.111| Int) (|.x.113| (Array Int Int)) (|.x.117| Int) (|.x.115| Int) (|.loc.5| Bool) (|.loc.6| Bool) (|.x.122| Int) (|.x.124| Int) (|.x.119| Int) (|.x.125| Int) (|.x.126| Int) (|.x.118| Int) (|.x.121| Int) (|.x.127| Int) (|.x.110| Int) (|.x.101| Int) (|.x.106| Int) (|.x.114| Int) (|.x.120| Int) (|hhv_ULTIMATE.start_ULTIMATE.startEXIT_28_Bool| Bool) (|.x.112| (Array Int Int)) (|.x.116| Int) (|.x.103| (Array Int Int)) (|.x.108| Int) (|.x.123| Int)) (=> (and (state |hhv_ULTIMATE.start_L-1_0_Int| |hbv_ULTIMATE.start_ULTIMATE.startENTRY_1_Int| |hhv_ULTIMATE.start_L-1_2_Int| |hbv_ULTIMATE.start_ULTIMATE.startENTRY_3_Array_Int_Int| |hhv_ULTIMATE.start_L-1_4_Array_Int_Int| |hhv_ULTIMATE.start_L-1_5_Array_Int_Array_Int_Int| |hbv_ULTIMATE.start_ULTIMATE.startENTRY_6_Int| |hhv_ULTIMATE.start_L-1_7_Int| |hbv_ULTIMATE.start_ULTIMATE.startENTRY_8_Int| |hhv_ULTIMATE.start_L-1_9_Int| |hbv_ULTIMATE.start_ULTIMATE.startENTRY_10_Int| |hhv_ULTIMATE.start_L-1_11_Int| |hbv_ULTIMATE.start_ULTIMATE.startENTRY_12_Array_Int_Int| |hhv_ULTIMATE.start_L-1_13_Array_Int_Int| |hbv_ULTIMATE.start_ULTIMATE.startENTRY_14_Int| |hhv_ULTIMATE.start_L-1_15_Int| |hbv_ULTIMATE.start_ULTIMATE.startENTRY_16_Int| |hhv_ULTIMATE.start_L-1_17_Int| |hhv_ULTIMATE.start_L-1_18_Int| |hhv_ULTIMATE.start_L-1_19_Int| |hhv_ULTIMATE.start_L-1_20_Int| |hhv_ULTIMATE.start_L-1_21_Int| |hhv_ULTIMATE.start_L-1_22_Int| |hhv_ULTIMATE.start_L-1_23_Int| |hhv_ULTIMATE.start_L-1_24_Int| |hhv_ULTIMATE.start_L-1_25_Int| |hhv_ULTIMATE.start_L-1_26_Int| |hhv_ULTIMATE.start_L-1_27_Int| |hhv_ULTIMATE.start_L-1_28_Bool| |.loc.3| |.loc.4|) (let ((.def_42 (not .loc.3))) (let ((.def_98 (= .x.122 .x.124))) (let ((.def_101 (= .x.119 .x.125))) (let ((.def_126 (and (= .x.124 .x.126) (and (= .x.125 .x.118) (and (= .x.119 .x.121) (and (= .x.122 .x.127) (and (= .x.118 .x.110) (and (= .x.121 .x.101) (and (= .x.126 .x.106) (= .x.127 .x.114)))))))))) (let ((.def_129 (= hhv_ULTIMATE.start_L-1_20_Int .x.120))) (let ((.def_135 (store (store hbv_ULTIMATE.start_ULTIMATE.startENTRY_3_Array_Int_Int 0 0) .x.106 1))) (let ((.def_138 (= .x.106 0))) (let ((.def_182 (or hhv_ULTIMATE.start_L-1_28_Bool (and (= (select .def_135 .x.114) 0) (and (not .def_138) (and (= .x.101 0) (and (and (and (and (and (and (and (and (and (and (= (store (store hbv_ULTIMATE.start_ULTIMATE.startENTRY_12_Array_Int_Int .x.106 4) .x.114 4) .x.112) (not (<= hhv_ULTIMATE.start_L-1_0_Int .x.114))) (= (select (select hhv_ULTIMATE.start_L-1_5_Array_Int_Array_Int_Int .x.114) .x.101) 0)) (= .x.116 0)) (= (store .def_135 .x.114 1) .x.103)) (not (<= hhv_ULTIMATE.start_L-1_0_Int .x.106))) (= .x.110 0)) (= (select (select hhv_ULTIMATE.start_L-1_5_Array_Int_Array_Int_Int .x.106) .x.110) 0)) (not (= .x.114 0))) (= .x.108 0)) (= (ite .def_138 0 (select hbv_ULTIMATE.start_ULTIMATE.startENTRY_3_Array_Int_Int .x.106)) 0)))))))) (let ((.def_209 (= hhv_ULTIMATE.start_L-1_28_Bool hhv_ULTIMATE.start_ULTIMATE.startEXIT_28_Bool))) (let ((.def_239 (not .loc.6))) (and (and (not .loc.4) (and (= hhv_ULTIMATE.start_L-1_0_Int .x.100) (and (= hhv_ULTIMATE.start_L-1_2_Int .x.102) (and (= hhv_ULTIMATE.start_L-1_4_Array_Int_Int .x.104) (and (= hhv_ULTIMATE.start_L-1_5_Array_Int_Array_Int_Int .x.105) (and (= hhv_ULTIMATE.start_L-1_7_Int .x.107) (and (= hhv_ULTIMATE.start_L-1_9_Int .x.109) (and (= hhv_ULTIMATE.start_L-1_11_Int .x.111) (and (= hhv_ULTIMATE.start_L-1_13_Array_Int_Int .x.113) (and (= hhv_ULTIMATE.start_L-1_17_Int .x.117) (= hhv_ULTIMATE.start_L-1_15_Int .x.115))))))))))) (or (or (and (and (not .loc.5) .loc.6) (or (and .def_42 (and (or hhv_ULTIMATE.start_L-1_28_Bool (and .def_98 .def_101)) (and (or hhv_ULTIMATE.start_L-1_28_Bool .def_126) (and (and .def_129 hhv_ULTIMATE.start_ULTIMATE.startEXIT_28_Bool) .def_182)))) (and (or hhv_ULTIMATE.start_L-1_28_Bool (= .x.123 0)) (and (= hbv_ULTIMATE.start_ULTIMATE.startENTRY_1_Int .x.101) (and (= hbv_ULTIMATE.start_ULTIMATE.startENTRY_3_Array_Int_Int .x.103) (and (= hbv_ULTIMATE.start_ULTIMATE.startENTRY_6_Int .x.106) (and (= hbv_ULTIMATE.start_ULTIMATE.startENTRY_8_Int .x.108) (and (= hbv_ULTIMATE.start_ULTIMATE.startENTRY_10_Int .x.110) (and (= hbv_ULTIMATE.start_ULTIMATE.startENTRY_12_Array_Int_Int .x.112) (and (= hbv_ULTIMATE.start_ULTIMATE.startENTRY_14_Int .x.114) (and (= hbv_ULTIMATE.start_ULTIMATE.startENTRY_16_Int .x.116) (and (= hhv_ULTIMATE.start_L-1_18_Int .x.118) (and (= hhv_ULTIMATE.start_L-1_19_Int .x.119) (and (= hhv_ULTIMATE.start_L-1_21_Int .x.121) (and (= hhv_ULTIMATE.start_L-1_22_Int .x.122) (and (= hhv_ULTIMATE.start_L-1_24_Int .x.124) (and (= hhv_ULTIMATE.start_L-1_25_Int .x.125) (and (= hhv_ULTIMATE.start_L-1_26_Int .x.126) (and (= hhv_ULTIMATE.start_L-1_27_Int .x.127) (and (and .loc.3 (or hhv_ULTIMATE.start_ULTIMATE.startEXIT_28_Bool (= .x.120 .x.123))) .def_209)))))))))))))))))))) (and (or .def_126 hhv_ULTIMATE.start_ULTIMATE.startEXIT_28_Bool) (and (or hhv_ULTIMATE.start_ULTIMATE.startEXIT_28_Bool (or (not .def_98) (not .def_101))) (and (and .def_209 (and .loc.5 (and .def_42 (and .def_129 .def_182)))) .def_239)))) (and .def_239 (and .loc.5 (and .def_42 (and .def_182 (and .def_129 (and hhv_ULTIMATE.start_L-1_28_Bool hhv_ULTIMATE.start_ULTIMATE.startEXIT_28_Bool))))))))))))))))))) (state |.x.100| |.x.101| |.x.102| |.x.103| |.x.104| |.x.105| |.x.106| |.x.107| |.x.108| |.x.109| |.x.110| |.x.111| |.x.112| |.x.113| |.x.114| |.x.115| |.x.116| |.x.117| |.x.118| |.x.119| |.x.120| |.x.121| |.x.122| |.x.123| |.x.124| |.x.125| |.x.126| |.x.127| |hhv_ULTIMATE.start_ULTIMATE.startEXIT_28_Bool| |.loc.5| |.loc.6|))))
(assert (forall ((|hhv_ULTIMATE.start_L-1_0_Int| Int) (|hbv_ULTIMATE.start_ULTIMATE.startENTRY_1_Int| Int) (|hhv_ULTIMATE.start_L-1_2_Int| Int) (|hbv_ULTIMATE.start_ULTIMATE.startENTRY_3_Array_Int_Int| (Array Int Int)) (|hhv_ULTIMATE.start_L-1_4_Array_Int_Int| (Array Int Int)) (|hhv_ULTIMATE.start_L-1_5_Array_Int_Array_Int_Int| (Array Int Int)) (|hbv_ULTIMATE.start_ULTIMATE.startENTRY_6_Int| Int) (|hhv_ULTIMATE.start_L-1_7_Int| Int) (|hbv_ULTIMATE.start_ULTIMATE.startENTRY_8_Int| Int) (|hhv_ULTIMATE.start_L-1_9_Int| Int) (|hbv_ULTIMATE.start_ULTIMATE.startENTRY_10_Int| Int) (|hhv_ULTIMATE.start_L-1_11_Int| Int) (|hbv_ULTIMATE.start_ULTIMATE.startENTRY_12_Array_Int_Int| (Array Int Int)) (|hhv_ULTIMATE.start_L-1_13_Array_Int_Int| (Array Int Int)) (|hbv_ULTIMATE.start_ULTIMATE.startENTRY_14_Int| Int) (|hhv_ULTIMATE.start_L-1_15_Int| Int) (|hbv_ULTIMATE.start_ULTIMATE.startENTRY_16_Int| Int) (|hhv_ULTIMATE.start_L-1_17_Int| Int) (|hhv_ULTIMATE.start_L-1_18_Int| Int) (|hhv_ULTIMATE.start_L-1_19_Int| Int) (|hhv_ULTIMATE.start_L-1_20_Int| Int) (|hhv_ULTIMATE.start_L-1_21_Int| Int) (|hhv_ULTIMATE.start_L-1_22_Int| Int) (|hhv_ULTIMATE.start_L-1_23_Int| Int) (|hhv_ULTIMATE.start_L-1_24_Int| Int) (|hhv_ULTIMATE.start_L-1_25_Int| Int) (|hhv_ULTIMATE.start_L-1_26_Int| Int) (|hhv_ULTIMATE.start_L-1_27_Int| Int) (|hhv_ULTIMATE.start_L-1_28_Bool| Bool) (|.loc.3| Bool) (|.loc.4| Bool) (|.x.100| Int) (|.x.102| Int) (|.x.104| (Array Int Int)) (|.x.105| (Array Int Int)) (|.x.107| Int) (|.x.109| Int) (|.x.111| Int) (|.x.113| (Array Int Int)) (|.x.117| Int) (|.x.115| Int) (|.loc.5| Bool) (|.loc.6| Bool) (|.x.122| Int) (|.x.124| Int) (|.x.119| Int) (|.x.125| Int) (|.x.126| Int) (|.x.118| Int) (|.x.121| Int) (|.x.127| Int) (|.x.110| Int) (|.x.101| Int) (|.x.106| Int) (|.x.114| Int) (|.x.120| Int) (|hhv_ULTIMATE.start_ULTIMATE.startEXIT_28_Bool| Bool) (|.x.112| (Array Int Int)) (|.x.116| Int) (|.x.103| (Array Int Int)) (|.x.108| Int) (|.x.123| Int)) (=> (state |hhv_ULTIMATE.start_L-1_0_Int| |hbv_ULTIMATE.start_ULTIMATE.startENTRY_1_Int| |hhv_ULTIMATE.start_L-1_2_Int| |hbv_ULTIMATE.start_ULTIMATE.startENTRY_3_Array_Int_Int| |hhv_ULTIMATE.start_L-1_4_Array_Int_Int| |hhv_ULTIMATE.start_L-1_5_Array_Int_Array_Int_Int| |hbv_ULTIMATE.start_ULTIMATE.startENTRY_6_Int| |hhv_ULTIMATE.start_L-1_7_Int| |hbv_ULTIMATE.start_ULTIMATE.startENTRY_8_Int| |hhv_ULTIMATE.start_L-1_9_Int| |hbv_ULTIMATE.start_ULTIMATE.startENTRY_10_Int| |hhv_ULTIMATE.start_L-1_11_Int| |hbv_ULTIMATE.start_ULTIMATE.startENTRY_12_Array_Int_Int| |hhv_ULTIMATE.start_L-1_13_Array_Int_Int| |hbv_ULTIMATE.start_ULTIMATE.startENTRY_14_Int| |hhv_ULTIMATE.start_L-1_15_Int| |hbv_ULTIMATE.start_ULTIMATE.startENTRY_16_Int| |hhv_ULTIMATE.start_L-1_17_Int| |hhv_ULTIMATE.start_L-1_18_Int| |hhv_ULTIMATE.start_L-1_19_Int| |hhv_ULTIMATE.start_L-1_20_Int| |hhv_ULTIMATE.start_L-1_21_Int| |hhv_ULTIMATE.start_L-1_22_Int| |hhv_ULTIMATE.start_L-1_23_Int| |hhv_ULTIMATE.start_L-1_24_Int| |hhv_ULTIMATE.start_L-1_25_Int| |hhv_ULTIMATE.start_L-1_26_Int| |hhv_ULTIMATE.start_L-1_27_Int| |hhv_ULTIMATE.start_L-1_28_Bool| |.loc.3| |.loc.4|) (not (and hhv_ULTIMATE.start_L-1_28_Bool (and .loc.4 (not .loc.3)))))))
(check-sat)
